solution status: optimal solution found
objective value:                     228366.073132654
d11(0,0)                                            1 	(obj:0)
d11(1,1)                                            1 	(obj:0)
d11(3,7)                                            1 	(obj:0)
d11(3,9)                                            1 	(obj:0)
d11(3,10)                                           1 	(obj:0)
d11(3,11)                                           1 	(obj:0)
d11(3,12)                                           1 	(obj:0)
d11(3,13)                                           1 	(obj:0)
d11(4,15)                                           1 	(obj:0)
d11(4,16)                                           1 	(obj:0)
d11(4,17)                                           1 	(obj:0)
d11(4,18)                                           1 	(obj:0)
d11(4,19)                                           1 	(obj:0)
d11(4,20)                                           1 	(obj:0)
d11(4,21)                                           1 	(obj:0)
d11(4,22)                                           1 	(obj:0)
d11(4,23)                                           1 	(obj:0)
d11(4,24)                           0.999999999999997 	(obj:0)
d11(4,25)                                           1 	(obj:0)
d11(4,26)                                           1 	(obj:0)
d11(4,27)                                           1 	(obj:0)
d11(4,28)                                           1 	(obj:0)
d11(4,29)                                           1 	(obj:0)
d11(5,31)                                           1 	(obj:0)
d11(5,32)                                           1 	(obj:0)
d11(5,33)                                           1 	(obj:0)
d11(5,34)                                           1 	(obj:0)
d11(5,35)                                           1 	(obj:0)
d11(5,36)                                           1 	(obj:0)
d11(5,37)                                           1 	(obj:0)
d11(5,39)                                           1 	(obj:0)
d11(5,40)                                           1 	(obj:0)
d11(5,41)                                           1 	(obj:0)
d11(5,42)                                           1 	(obj:0)
d11(5,43)                                           1 	(obj:0)
d11(5,44)                                           1 	(obj:0)
d11(5,45)                                           1 	(obj:0)
d11(5,46)                                           1 	(obj:0)
d11(5,47)                                           1 	(obj:0)
d11(5,48)                                           1 	(obj:0)
d11(5,49)                                           1 	(obj:0)
d11(5,50)                                           1 	(obj:0)
d11(5,51)                                           1 	(obj:0)
d11(5,52)                                           1 	(obj:0)
d11(5,53)                                           1 	(obj:0)
d11(5,54)                                           1 	(obj:0)
d11(5,55)                                           1 	(obj:0)
d11(5,56)                                           1 	(obj:0)
d11(5,57)                                           1 	(obj:0)
d11(5,58)                                           1 	(obj:0)
d11(5,59)                                           1 	(obj:0)
d11(5,60)                                           1 	(obj:0)
d11(5,61)                                           1 	(obj:0)
d11(5,62)                                           1 	(obj:0)
d11(6,63)                                           1 	(obj:0)
d11(6,65)                                           1 	(obj:0)
d11(6,67)                                           1 	(obj:0)
d11(6,69)                                           1 	(obj:0)
d11(6,71)                                           1 	(obj:0)
d11(6,73)                                           1 	(obj:0)
d11(6,75)                                           1 	(obj:0)
d11(6,77)                                           1 	(obj:0)
d11(6,79)                                           1 	(obj:0)
d11(6,81)                                           1 	(obj:0)
d11(6,83)                                           1 	(obj:0)
d11(6,85)                                           1 	(obj:0)
d11(6,87)                                           1 	(obj:0)
d11(6,89)                                           1 	(obj:0)
d11(6,91)                                           1 	(obj:0)
d11(6,93)                                           1 	(obj:0)
d11(6,95)                                           1 	(obj:0)
d11(6,97)                                           1 	(obj:0)
d11(6,99)                                           1 	(obj:0)
d11(6,101)                                          1 	(obj:0)
d11(6,103)                                          1 	(obj:0)
d11(6,105)                                          1 	(obj:0)
d11(6,107)                                          1 	(obj:0)
d11(6,109)                                          1 	(obj:0)
d11(6,111)                                          1 	(obj:0)
d11(6,113)                                          1 	(obj:0)
d11(6,115)                                          1 	(obj:0)
d11(6,117)                                          1 	(obj:0)
d11(6,119)                                          1 	(obj:0)
d11(6,121)                                          1 	(obj:0)
d11(6,123)                                          1 	(obj:0)
d11(6,125)                                          1 	(obj:0)
d12(2,4)                                            1 	(obj:0)
d12(2,6)                                            1 	(obj:0)
d12(6,64)                                           1 	(obj:0)
d12(6,66)                                           1 	(obj:0)
d12(6,68)                                           1 	(obj:0)
d12(6,70)                                           1 	(obj:0)
d12(6,72)                                           1 	(obj:0)
d12(6,74)                                           1 	(obj:0)
d12(6,76)                                           1 	(obj:0)
d12(6,78)                                           1 	(obj:0)
d12(6,80)                                           1 	(obj:0)
d12(6,82)                                           1 	(obj:0)
d12(6,84)                                           1 	(obj:0)
d12(6,86)                                           1 	(obj:0)
d12(6,88)                                           1 	(obj:0)
d12(6,90)                                           1 	(obj:0)
d12(6,92)                                           1 	(obj:0)
d12(6,94)                                           1 	(obj:0)
d12(6,96)                                           1 	(obj:0)
d12(6,98)                                           1 	(obj:0)
d12(6,100)                                          1 	(obj:0)
d12(6,102)                                          1 	(obj:0)
d12(6,104)                                          1 	(obj:0)
d12(6,106)                                          1 	(obj:0)
d12(6,108)                                          1 	(obj:0)
d12(6,110)                                          1 	(obj:0)
d12(6,112)                                          1 	(obj:0)
d12(6,114)                                          1 	(obj:0)
d12(6,116)                                          1 	(obj:0)
d12(6,118)                                          1 	(obj:0)
d12(6,120)                                          1 	(obj:0)
d12(6,122)                                          1 	(obj:0)
d12(6,124)                                          1 	(obj:0)
d12(6,126)                                          1 	(obj:0)
d21(4,15)                                           1 	(obj:0)
d21(5,31)                                           1 	(obj:0)
d21(5,32)                                           1 	(obj:0)
d21(5,33)                                           1 	(obj:0)
d21(5,34)                                           1 	(obj:0)
d21(5,35)                                           1 	(obj:0)
d21(5,36)                                           1 	(obj:0)
d21(5,37)                                           1 	(obj:0)
d21(5,39)                                           1 	(obj:0)
d21(5,40)                                           1 	(obj:0)
d21(5,41)                                           1 	(obj:0)
d21(5,43)                                           1 	(obj:0)
d21(5,47)                                           1 	(obj:0)
d21(5,48)                                           1 	(obj:0)
d21(5,49)                                           1 	(obj:0)
d21(5,51)                                           1 	(obj:0)
d21(5,55)                                           1 	(obj:0)
d21(6,63)                                           1 	(obj:0)
d21(6,64)                                           1 	(obj:0)
d21(6,65)                                           1 	(obj:0)
d21(6,66)                                           1 	(obj:0)
d21(6,67)                                           1 	(obj:0)
d21(6,68)                                           1 	(obj:0)
d21(6,69)                                           1 	(obj:0)
d21(6,70)                                           1 	(obj:0)
d21(6,71)                                           1 	(obj:0)
d21(6,72)                                           1 	(obj:0)
d21(6,73)                                           1 	(obj:0)
d21(6,74)                                           1 	(obj:0)
d21(6,75)                                           1 	(obj:0)
d21(6,76)                                           1 	(obj:0)
d21(6,79)                                           1 	(obj:0)
d21(6,80)                                           1 	(obj:0)
d21(6,81)                                           1 	(obj:0)
d21(6,82)                                           1 	(obj:0)
d21(6,83)                                           1 	(obj:0)
d21(6,84)                                           1 	(obj:0)
d21(6,85)                                           1 	(obj:0)
d21(6,87)                                           1 	(obj:0)
d21(6,88)                                           1 	(obj:0)
d21(6,89)                                           1 	(obj:0)
d21(6,91)                                           1 	(obj:0)
d21(6,95)                                           1 	(obj:0)
d21(6,96)                                           1 	(obj:0)
d21(6,97)                                           1 	(obj:0)
d21(6,98)                                           1 	(obj:0)
d21(6,99)                                           1 	(obj:0)
d21(6,100)                                          1 	(obj:0)
d21(6,103)                                          1 	(obj:0)
d21(6,104)                                          1 	(obj:0)
d21(6,105)                                          1 	(obj:0)
d21(6,107)                                          1 	(obj:0)
d21(6,111)                                          1 	(obj:0)
d21(6,112)                                          1 	(obj:0)
d21(6,113)                                          1 	(obj:0)
d21(6,115)                                          1 	(obj:0)
d21(6,119)                                          1 	(obj:0)
y2(6,100)                            666.778722857061 	(obj:0)
y2(6,102)                            666.778722857061 	(obj:0)
y2(6,104)                            666.778722857061 	(obj:0)
y2(6,106)                            666.778722857061 	(obj:0)
y2(6,108)                            666.778722857061 	(obj:0)
y2(6,110)                            666.778722857061 	(obj:0)
y2(6,112)                            666.778722857061 	(obj:0)
y2(6,114)                            666.778722857062 	(obj:0)
y2(6,116)                            666.778722857062 	(obj:0)
y2(6,118)                            666.778722857061 	(obj:0)
y2(6,120)                            666.778722857062 	(obj:0)
y2(6,122)                            666.778722857061 	(obj:0)
y2(6,124)                            666.778722857061 	(obj:0)
y2(6,126)                            666.778722857061 	(obj:0)
STE(1,1)                             8484.75010111115 	(obj:0)
STE(0,0)                                        11025 	(obj:0)
STE(1,2)                                        10143 	(obj:0)
STE(2,3)                             7602.75010111116 	(obj:0)
STE(2,4)                             8918.96418698766 	(obj:0)
STE(2,5)                                         9261 	(obj:0)
STE(2,6)                             10577.2140858765 	(obj:0)
STE(3,7)                             5062.50020222231 	(obj:0)
STE(3,8)                             6720.75010111116 	(obj:0)
STE(3,9)                             6378.71428809882 	(obj:0)
STE(3,10)                            8036.96418698763 	(obj:0)
STE(3,11)                            6720.75010111115 	(obj:0)
STE(3,12)                            8378.99999999997 	(obj:0)
STE(3,13)                            8036.96418698766 	(obj:0)
STE(3,14)                            9695.21408587651 	(obj:0)
STE(4,15)                            2522.25030333346 	(obj:0)
STE(4,16)                            4180.50020222228 	(obj:0)
STE(4,17)                            4180.50020222231 	(obj:0)
STE(4,18)                            5838.75010111113 	(obj:0)
STE(4,19)                            3838.46438920997 	(obj:0)
STE(4,20)                            5496.71428809879 	(obj:0)
STE(4,21)                            5496.71428809879 	(obj:0)
STE(4,22)                            7154.96418698761 	(obj:0)
STE(4,23)                            4180.50020222231 	(obj:0)
STE(4,24)                            5838.75010111115 	(obj:0)
STE(4,25)                            5838.75010111113 	(obj:0)
STE(4,26)                            7496.99999999994 	(obj:0)
STE(4,27)                            5496.71428809881 	(obj:0)
STE(4,28)                            7154.96418698763 	(obj:0)
STE(4,29)                            7154.96418698766 	(obj:0)
STE(4,30)                            8813.21408587651 	(obj:0)
STE(5,31)                           -17.9995955553808 	(obj:0)
STE(5,32)                            1640.25030333344 	(obj:0)
STE(5,33)                            1640.25030333344 	(obj:0)
STE(5,34)                            3298.50020222225 	(obj:0)
STE(5,35)                            1640.25030333347 	(obj:0)
STE(5,36)                            3298.50020222228 	(obj:0)
STE(5,37)                            3298.50020222228 	(obj:0)
STE(5,38)                            4956.75010111113 	(obj:0)
STE(5,39)                            1298.21449032113 	(obj:0)
STE(5,40)                            2956.46438920997 	(obj:0)
STE(5,41)                            2956.46438920994 	(obj:0)
STE(5,42)                            4614.71428809876 	(obj:0)
STE(5,43)                            2956.46438920994 	(obj:0)
STE(5,44)                            4614.71428809876 	(obj:0)
STE(5,45)                            4614.71428809876 	(obj:0)
STE(5,46)                            6272.96418698758 	(obj:0)
STE(5,47)                            1640.25030333346 	(obj:0)
STE(5,48)                            3298.50020222228 	(obj:0)
STE(5,49)                            3298.50020222231 	(obj:0)
STE(5,50)                            4956.75010111113 	(obj:0)
STE(5,51)                            3298.50020222228 	(obj:0)
STE(5,52)                             4956.7501011111 	(obj:0)
STE(5,53)                             4956.7501011111 	(obj:0)
STE(5,54)                            6614.99999999992 	(obj:0)
STE(5,55)                            2956.46438920997 	(obj:0)
STE(5,56)                            4614.71428809879 	(obj:0)
STE(5,57)                            4614.71428809879 	(obj:0)
STE(5,58)                             6272.9641869876 	(obj:0)
STE(5,59)                            4614.71428809882 	(obj:0)
STE(5,60)                            6272.96418698763 	(obj:0)
STE(5,61)                            6272.96418698766 	(obj:0)
STE(5,62)                            7931.21408587648 	(obj:0)
STE(6,63)                           -1667.24969666651 	(obj:0)
STE(6,64)                           -266.559808841172 	(obj:0)
STE(6,65)                           -8.99979777769124 	(obj:0)
STE(6,66)                            1391.69009004764 	(obj:0)
STE(6,67)                           -8.99979777769079 	(obj:0)
STE(6,68)                            1391.69009004765 	(obj:0)
STE(6,69)                            1649.25010111113 	(obj:0)
STE(6,70)                            3049.93998893646 	(obj:0)
STE(6,71)                           -8.99979777766214 	(obj:0)
STE(6,72)                            1391.69009004767 	(obj:0)
STE(6,73)                            1649.25010111116 	(obj:0)
STE(6,74)                            3049.93998893649 	(obj:0)
STE(6,75)                            1649.25010111116 	(obj:0)
STE(6,76)                            3049.93998893649 	(obj:0)
STE(6,77)                                      3307.5 	(obj:0)
STE(6,78)                            4708.18988782534 	(obj:0)
STE(6,79)                           -351.035610790002 	(obj:0)
STE(6,80)                            1049.65427703533 	(obj:0)
STE(6,81)                            1307.21428809884 	(obj:0)
STE(6,82)                            2707.90417592418 	(obj:0)
STE(6,83)                            1307.21428809882 	(obj:0)
STE(6,84)                            2707.90417592415 	(obj:0)
STE(6,85)                            2965.46418698763 	(obj:0)
STE(6,86)                            4366.15407481297 	(obj:0)
STE(6,87)                            1307.21428809882 	(obj:0)
STE(6,88)                            2707.90417592415 	(obj:0)
STE(6,89)                            2965.46418698763 	(obj:0)
STE(6,90)                            4366.15407481297 	(obj:0)
STE(6,91)                            2965.46418698764 	(obj:0)
STE(6,92)                            4366.15407481297 	(obj:0)
STE(6,93)                            4623.71408587645 	(obj:0)
STE(6,94)                            6024.40397370179 	(obj:0)
STE(6,95)                           -8.99979777766396 	(obj:0)
STE(6,96)                            1391.69009004767 	(obj:0)
STE(6,97)                            1649.25010111115 	(obj:0)
STE(6,98)                            3049.93998893649 	(obj:0)
STE(6,99)                            1649.25010111118 	(obj:0)
STE(6,100)                           3049.93998893652 	(obj:0)
STE(6,101)                                     3307.5 	(obj:0)
STE(6,102)                           4708.18988782534 	(obj:0)
STE(6,103)                           1649.25010111115 	(obj:0)
STE(6,104)                           3049.93998893649 	(obj:0)
STE(6,105)                           3307.49999999997 	(obj:0)
STE(6,106)                           4708.18988782531 	(obj:0)
STE(6,107)                                     3307.5 	(obj:0)
STE(6,108)                           4708.18988782531 	(obj:0)
STE(6,109)                           4965.74989888879 	(obj:0)
STE(6,110)                           6366.43978671412 	(obj:0)
STE(6,111)                           1307.21428809884 	(obj:0)
STE(6,112)                           2707.90417592418 	(obj:0)
STE(6,113)                           2965.46418698766 	(obj:0)
STE(6,114)                             4366.154074813 	(obj:0)
STE(6,115)                           2965.46418698766 	(obj:0)
STE(6,116)                           4366.15407481299 	(obj:0)
STE(6,117)                           4623.71408587648 	(obj:0)
STE(6,118)                           6024.40397370181 	(obj:0)
STE(6,119)                           2965.46418698769 	(obj:0)
STE(6,120)                           4366.15407481302 	(obj:0)
STE(6,121)                           4623.71408587651 	(obj:0)
STE(6,122)                           6024.40397370184 	(obj:0)
STE(6,123)                           4623.71408587654 	(obj:0)
STE(6,124)                           6024.40397370187 	(obj:0)
STE(6,125)                           6281.96398476535 	(obj:0)
STE(6,126)                           7682.65387259069 	(obj:0)
y1(6,99)                             690.525091000015 	(obj:0)
y1(6,101)                            690.525091000015 	(obj:0)
y1(6,103)                            690.525091000015 	(obj:0)
y1(6,105)                            690.525091000015 	(obj:0)
y1(6,107)                            690.525090999989 	(obj:0)
y1(6,109)                            690.525091000015 	(obj:0)
y1(6,111)                            690.525091000015 	(obj:0)
y1(6,113)                            690.525091000015 	(obj:0)
y1(6,115)                            690.525091000015 	(obj:0)
y1(6,117)                            690.525091000015 	(obj:0)
y1(6,119)                            690.525091000015 	(obj:0)
y1(6,121)                            690.525091000015 	(obj:0)
y1(6,123)                            690.525091000015 	(obj:0)
y1(6,125)                            690.525091000015 	(obj:0)
BG(5)                                 723.52242103785 	(obj:10)
BG(6)                                331.665483504683 	(obj:10)
AVE(1)                               3259.55177567504 	(obj:0)
WB(2)                                3259.55588804169 	(obj:0)
AVE(2)                               3259.55588804169 	(obj:0)
AVE(3)                               3579.36165209166 	(obj:0)
AVE(4)                               3579.36576445831 	(obj:0)
AVE(5)                               3472.77007794174 	(obj:0)
AVE(6)                                3046.3618950668 	(obj:0)
WG(1)                                3259.55177567504 	(obj:10)
WG(3)                                3579.36165209166 	(obj:10)
WG(4)                                3579.36576445831 	(obj:10)
WG(5)                                3472.77007794174 	(obj:10)
WG(6)                                 3046.3618950668 	(obj:10)
BG(1)                                936.740723304551 	(obj:10)
BG(2)                                2673.40993877551 	(obj:10)
BG(3)                                616.930846887932 	(obj:10)
BG(4)                                616.926734521282 	(obj:10)
y1(1,1)                              1492.42490899996 	(obj:0)
y1(3,7)                              1492.42490899996 	(obj:0)
y1(3,9)                              1492.42490899996 	(obj:0)
y1(3,11)                             1492.42490899996 	(obj:0)
y1(3,13)                             1492.42490899996 	(obj:0)
y1(4,15)                             1492.42490899996 	(obj:0)
y1(4,17)                             1492.42490899996 	(obj:0)
y1(4,19)                             1492.42490899996 	(obj:0)
y1(4,21)                             1492.42490899996 	(obj:0)
y1(4,23)                             1492.42490899996 	(obj:0)
y1(4,25)                             1492.42490899996 	(obj:0)
y1(4,27)                             1492.42490899996 	(obj:0)
y1(4,29)                             1492.42490899996 	(obj:0)
y1(5,31)                             1492.42490899996 	(obj:0)
y1(5,33)                             1492.42490899996 	(obj:0)
y1(5,35)                             1492.42490899996 	(obj:0)
y1(5,37)                             1492.42490899996 	(obj:0)
y1(5,39)                             1492.42490899996 	(obj:0)
y1(5,41)                             1492.42490899996 	(obj:0)
y1(5,43)                             1492.42490899996 	(obj:0)
y1(5,45)                             1492.42490899996 	(obj:0)
y1(5,47)                             1492.42490899996 	(obj:0)
y1(5,49)                             1492.42490899996 	(obj:0)
y1(5,51)                             1492.42490899996 	(obj:0)
y1(5,53)                             1492.42490899996 	(obj:0)
y1(5,55)                             1492.42490899996 	(obj:0)
y1(5,57)                             1492.42490899996 	(obj:0)
y1(5,59)                             1492.42490899996 	(obj:0)
y1(5,61)                             1492.42490899996 	(obj:0)
y1(6,63)                             690.525091000015 	(obj:0)
y1(6,65)                             690.525091000015 	(obj:0)
y1(6,67)                             690.525091000015 	(obj:0)
y1(6,69)                             690.525091000015 	(obj:0)
y1(6,71)                             690.525091000015 	(obj:0)
y1(6,73)                             690.525091000015 	(obj:0)
y1(6,75)                             690.525091000015 	(obj:0)
y1(6,77)                             690.525091000015 	(obj:0)
y1(6,79)                             690.525091000015 	(obj:0)
y1(6,81)                             690.525091000015 	(obj:0)
y1(6,83)                             690.525091000015 	(obj:0)
y1(6,85)                             690.525091000015 	(obj:0)
y1(6,87)                             690.525091000015 	(obj:0)
y1(6,89)                             690.525091000015 	(obj:0)
y1(6,91)                             690.525091000015 	(obj:0)
y1(6,93)                             690.525091000015 	(obj:0)
y1(6,95)                             690.525091000015 	(obj:0)
y1(6,97)                             690.525091000015 	(obj:0)
y2(2,4)                              1385.48851144895 	(obj:0)
y2(2,6)                              1385.48851144895 	(obj:0)
y2(6,64)                             666.778722857061 	(obj:0)
y2(6,66)                             666.778722857061 	(obj:0)
y2(6,68)                             666.778722857061 	(obj:0)
y2(6,70)                             666.778722857061 	(obj:0)
y2(6,72)                             666.778722857061 	(obj:0)
y2(6,74)                             666.778722857061 	(obj:0)
y2(6,76)                             666.778722857061 	(obj:0)
y2(6,78)                             666.778722857061 	(obj:0)
y2(6,80)                             666.778722857061 	(obj:0)
y2(6,82)                             666.778722857061 	(obj:0)
y2(6,84)                             666.778722857061 	(obj:0)
y2(6,86)                             666.778722857062 	(obj:0)
y2(6,88)                             666.778722857061 	(obj:0)
y2(6,90)                             666.778722857061 	(obj:0)
y2(6,92)                             666.778722857061 	(obj:0)
y2(6,94)                             666.778722857061 	(obj:0)
y2(6,96)                             666.778722857061 	(obj:0)
y2(6,98)                             666.778722857061 	(obj:0)
